resources = [2,3,3,3,3,2];
horizon = 15;
norders = 8;
dist = [100,30,20,15,20,35,25,150];
weight = [HEAVY,LIGHT,LIGHT,ULTRA,MEDIUM,LIGHT,HEAVY,HEAVY];
packtime = [1,2,3,5];
available = [0,0,3,5,7,5,0,2];
value = [2,5,3,5,10,8,12,14];
ndrones = 4;
arrival = [0,0,0,0];
charge  = [0,0,0,0];